language ESSENCE' 1.0

letting nnodes be 7
letting nrings be 4
letting capacity be 4
letting demand_ExplicitR3_Explicit be
        [[1, 5; int(1..2)], [1, 6; int(1..2)], [2, 4; int(1..2)], [2, 7; int(1..2)], [3, 4; int(1..2)],
         [3, 5; int(1..2)], [3, 7; int(1..2)], [4, 7; int(1..2)];
             int(1..8)]
$ Visualisation for demand_ExplicitR3_Explicit
$ 1 5
$ 1 6
$ 2 4
$ 2 7
$ 3 4
$ 3 5
$ 3 7
$ 4 7

letting fin1 be 8
